0 23 
1 25 
2 27 
3 28 
4 28 
5 27 
6 25 
7 24 
8 25 
9 24 
10 23 
11 21 
12 20 
13 18 
14 20 
15 20 
16 20 
17 20 
18 19 
19 19 
20 18 
21 17 
22 16 
23 16 
24 14 
25 13 
26 11 
27 9 
28 8 
29 7 
30 4 
31 1 
32 1 
33 0 
34 0 

